ssat_solver_solve2
#level: 5
Abc_NtkNodeNum(s->pNtk): 50  , BDD limit: 10240
Build BDD success
level 4: 2 element
Exist
level 3: 1 element
Random
level 2: 3 element
Exist
level 1: 1 element
Random
level 0: 3 element
Exist
c ssat solving in ABC
#var: 10
s SATISFIABLE
  > Upper bound = 1.000000e+00
  > Lower bound = 1.000000e+00
FINISHED CPU 0.00 MEM 45584 MAXMEM 45584 STALE 1 MAXMEM_RSS 4248
<time name="ALL">90</time>
real 0.40
user 0.16
sys 0.16
